NAME : LPS-n28-m4
COMMENT : (Lartu-Peter-Santi Plot, instance 10004 out of 39200. 28 customers.)
TYPE : CVRP
DIMENSION : 28
EDGE_WEIGHT_TYPE : EUC_2D
CAPACITY : 128
NODE_COORD_SECTION
 1 42 7
 2 21 36
 3 23 4
 4 38 51
 5 92 28
 6 85 7
 7 83 40
 8 96 8
 9 42 69
 10 76 85
 11 48 84
 12 60 12
 13 51 95
 14 91 86
 15 21 63
 16 98 77
 17 0 85
 18 7 92
 19 46 14
 20 79 0
 21 5 15
 22 35 34
 23 72 86
 24 54 21
 25 33 58
 26 83 43
 27 36 51
 28 18 69
DEMAND_SECTION
1 0
2 71
3 69
4 54
5 6
6 4
7 98
8 4
9 103
10 123
11 51
12 38
13 60
14 20
15 99
16 81
17 8
18 88
19 38
20 64
21 35
22 53
23 38
24 79
25 51
26 62
27 123
28 38
DEPOT_SECTION
 1
 -1
EOF
